20637935859059563735010,1,1,2,03,2,1,2,04,11,1,2,010,2,1,2,014,15,1,2,010,12,1,2,06,14,1,2,013,10,1,2,012,7,1,2,014,11,1,2,02,9,1,2,010,1,1,2,08,4,1,2,08,11,1,2,013,14,1,2,014,5,1,2,05,12,1,2,09,15,1,2,01,1,1,2,013,3,1,2,05,6,1,2,04,2,1,2,011,13,1,2,010,4,1,2,011,2,1,2,07,4,1,2,03,3,1,2,09,6,1,2,09,3,1,2,013,7,1,2,01,11,1,2,011,7,1,2,07,1,1,2,08,7,1,2,03,13,1,2,06,4,1,2,07,3,1,2,015,13,1,2,014,9,1,2,07,2,1,2,07,13,1,2,015,6,1,2,015,12,1,2,014,4,1,2,04,9,1,2,012,6,1,2,08,8,1,2,013,15,1,2,013,8,1,2,013,1,1,2,0